5
856 917 520  777
733 882 534  337
438 407 857  125
715 813 799  786
780 454 611  401
15
5 303 542  16 235
575 432 264  90 1
664 518 271  278 154
694 153 768  41 236
325 89 793  105 100
541 294 393  21 257
403 122 583  282 292
121 494 195  194 144
496 503 786  253 87
294 498 182  147 191
84 549 336  16 112
83 736 377  69 130
744 231 685  297 103
165 626 102  261 91
654 686 602  146 58
